MARKOV
1149
 2 2 2 2 2 2 2 2 2 2 2 2 2 2 2 2 2 2 2 2 2 2 2 2 2 2 2 2 2 2 2 2 2 2 2 2 2 2 2 2 2 2 2 2 2 2 2 2 2 2 2 2 2 2 2 2 2 2 2 2 2 2 2 2 2 2 2 2 2 2 2 2 2 2 2 2 2 2 2 2 2 2 2 2 2 2 2 2 2 2 2 2 2 2 2 2 2 2 2 2 2 2 2 2 2 2 2 2 2 2 2 2 2 2 2 2 2 2 2 2 2 2 2 2 2 2 2 2 2 2 2 2 2 2 2 2 2 2 2 2 2 2 2 2 2 2 2 2 2 2 2 2 2 2 2 2 2 2 2 2 2 2 2 2 2 2 2 2 2 2 2 2 2 2 2 2 2 2 2 2 2 2 2 2 2 2 2 2 2 2 2 2 2 2 2 2 2 2 2 2 2 2 2 2 2 2 2 2 2 2 2 2 2 2 2 2 2 2 2 2 2 2 2 2 2 2 2 2 2 2 2 2 2 2 2 2 2 2 2 2 2 2 2 2 2 2 2 2 2 2 2 2 2 2 2 2 2 2 2 2 2 2 2 2 2 2 2 2 2 2 2 2 2 2 2 2 2 2 2 2 2 2 2 2 2 2 2 2 2 2 2 2 2 2 2 2 2 2 2 2 2 2 2 2 2 2 2 2 2 2 2 2 2 2 2 2 2 2 2 2 2 2 2 2 2 2 2 2 2 2 2 2 2 2 2 2 2 2 2 2 2 2 2 2 2 2 2 2 2 2 2 2 2 2 2 2 2 2 2 2 2 2 2 2 2 2 2 2 2 2 2 2 2 2 2 2 2 2 2 2 2 2 2 2 2 2 2 2 2 2 2 2 2 2 2 2 2 2 2 2 2 2 2 2 2 2 2 2 2 2 2 2 2 2 2 2 2 2 2 2 2 2 2 2 2 2 2 2 2 2 2 2 2 2 2 2 2 2 2 2 2 2 2 2 2 2 2 2 2 2 2 2 2 2 2 2 2 2 2 2 2 2 2 2 2 2 2 2 2 2 2 2 2 2 2 2 2 2 2 2 2 2 2 2 2 2 2 2 2 2 2 2 2 2 2 2 2 2 2 2 2 2 2 2 2 2 2 2 2 2 2 2 2 2 2 2 2 2 2 2 2 2 2 2 2 2 2 2 2 2 2 2 2 2 2 2 2 2 2 2 2 2 2 2 2 2 2 2 2 2 2 2 2 2 2 2 2 2 2 2 2 2 2 2 2 2 2 2 2 2 2 2 2 2 2 2 2 2 2 2 2 2 2 2 2 2 2 2 2 2 2 2 2 2 2 2 2 2 2 2 2 2 2 2 2 2 2 2 2 2 2 2 2 2 2 2 2 2 2 2 2 2 2 2 2 2 2 2 2 2 2 2 2 2 2 2 2 2 2 2 2 2 2 2 2 2 2 2 2 2 2 2 2 2 2 2 2 2 2 2 2 2 2 2 2 2 2 2 2 2 2 2 2 2 2 2 2 2 2 2 2 2 2 2 2 2 2 2 2 2 2 2 2 2 2 2 2 2 2 2 2 2 2 2 2 2 2 2 2 2 2 2 2 2 2 2 2 2 2 2 2 2 2 2 2 2 2 2 2 2 2 2 2 2 2 2 2 2 2 2 2 2 2 2 2 2 2 2 2 2 2 2 2 2 2 2 2 2 2 2 2 2 2 2 2 2 2 2 2 2 2 2 2 2 2 2 2 2 2 2 2 2 2 2 2 2 2 2 2 2 2 2 2 2 2 2 2 2 2 2 2 2 2 2 2 2 2 2 2 2 2 2 2 2 2 2 2 2 2 2 2 2 2 2 2 2 2 2 2 2 2 2 2 2 2 2 2 2 2 2 2 2 2 2 2 2 2 2 2 2 2 2 2 2 2 2 2 2 2 2 2 2 2 2 2 2 2 2 2 2 2 2 2 2 2 2 2 2 2 2 2 2 2 2 2 2 2 2 2 2 2 2 2 2 2 2 2 2 2 2 2 2 2 2 2 2 2 2 2 2 2 2 2 2 2 2 2 2 2 2 2 2 2 2 2 2 2 2 2 2 2 2 2 2 2 2 2 2 2 2 2 2 2 2 2 2 2 2 2 2 2 2 2 2 2 2 2 2 2 2 2 2 2 2 2 2 2 2 2 2 2 2 2 2 2 2 2 2 2 2 2 2 2 2 2 2 2 2 2 2 2 2 2 2 2 2 2 2 2 2 2 2 2 2 2 2 2 2 2 2 2 2 2 2 2 2 2 2 2 2 2 2 2 2 2 2 2 2 2 2 2 2 2 2 2 2 2 2 2 2 2 2 2 2 2 2 2 2 2 2 2 2 2 2 2 2 2 2 2 2 2 2 2 2 2 2 2 2 2 2 2 2 2 2 2 2 2 2 2 2 2 2 2 2 2 2 2 2 2 2 2 2 2 2 2 2 2 2 2 2 2 2 2 2 2 2 2 2 2 2 2 2 2 2 2 2 2 2 2 2 2 2 2 2 2 2 2 2 2 2 2 2 2 2 2 2 2 2 2 2 2 2 2 2 2 2 2 2 2
1164
3	177 450 1148 
1	1148 
3	341 369 1147 
3	100 1146 1147 
3	38 1145 1146 
3	128 1144 1145 
3	214 1143 1144 
3	53 1142 1143 
3	320 1141 1142 
3	108 1140 1141 
3	85 1139 1140 
3	327 1138 1139 
3	400 1137 1138 
3	212 1136 1137 
3	444 1135 1136 
3	13 1134 1135 
3	147 1133 1134 
3	157 1132 1133 
3	151 1131 1132 
3	124 1130 1131 
3	442 1129 1130 
3	78 1128 1129 
3	234 1127 1128 
3	443 1126 1127 
3	105 1125 1126 
3	427 1124 1125 
3	373 1123 1124 
3	346 1122 1123 
3	251 1121 1122 
3	143 1120 1121 
3	432 1119 1120 
3	453 1118 1119 
3	76 1117 1118 
3	226 1116 1117 
3	345 1115 1116 
3	413 1114 1115 
3	282 1113 1114 
3	377 1112 1113 
3	16 1111 1112 
3	246 1110 1111 
3	203 1109 1110 
3	236 1108 1109 
3	15 1107 1108 
3	47 1106 1107 
3	26 1105 1106 
3	59 1104 1105 
3	299 1103 1104 
3	389 1102 1103 
3	217 1101 1102 
3	272 1100 1101 
3	150 1099 1100 
3	39 1098 1099 
3	247 1097 1098 
3	224 1096 1097 
3	311 1095 1096 
3	45 1094 1095 
3	133 1093 1094 
3	360 1092 1093 
3	275 1091 1092 
3	127 1090 1091 
3	186 1089 1090 
3	94 1088 1089 
3	213 1087 1088 
3	77 1086 1087 
3	121 1085 1086 
3	455 1084 1085 
3	3 1083 1084 
3	463 1082 1083 
3	24 1081 1082 
3	323 1080 1081 
3	461 1079 1080 
3	379 1078 1079 
3	242 1077 1078 
3	424 1076 1077 
3	430 1075 1076 
3	332 1074 1075 
3	374 1073 1074 
3	414 1072 1073 
3	407 1071 1072 
3	103 1070 1071 
3	148 1069 1070 
3	40 1068 1069 
3	189 1067 1068 
3	396 1066 1067 
3	113 1065 1066 
3	188 1064 1065 
3	367 1063 1064 
3	30 1062 1063 
3	33 1061 1062 
3	74 1060 1061 
3	384 1059 1060 
3	395 1058 1059 
3	293 1057 1058 
3	392 1056 1057 
3	134 1055 1056 
3	61 1054 1055 
3	331 1053 1054 
3	199 1052 1053 
3	140 1051 1052 
3	109 1050 1051 
3	69 1049 1050 
3	159 1048 1049 
3	221 1047 1048 
3	437 1046 1047 
3	302 1045 1046 
3	101 1044 1045 
3	71 1043 1044 
3	303 1042 1043 
3	249 1041 1042 
3	428 1040 1041 
3	93 1039 1040 
3	122 1038 1039 
3	269 1037 1038 
3	81 1036 1037 
3	397 1035 1036 
3	139 1034 1035 
3	308 1033 1034 
3	288 1032 1033 
3	12 1031 1032 
3	391 1030 1031 
3	11 1029 1030 
3	243 1028 1029 
3	448 1027 1028 
3	50 1026 1027 
3	70 1025 1026 
3	425 1024 1025 
3	175 1023 1024 
3	466 1022 1023 
3	285 1021 1022 
3	324 1020 1021 
3	184 1019 1020 
3	173 1018 1019 
3	412 1017 1018 
3	423 1016 1017 
3	347 1015 1016 
3	223 1014 1015 
3	17 1013 1014 
3	66 1012 1013 
3	136 1011 1012 
3	65 1010 1011 
3	351 1009 1010 
3	169 1008 1009 
3	110 1007 1008 
3	164 1006 1007 
3	313 1005 1006 
3	149 1004 1005 
3	297 1003 1004 
3	52 1002 1003 
3	362 1001 1002 
3	44 1000 1001 
3	161 999 1000 
3	376 998 999 
3	120 997 998 
3	155 996 997 
3	10 995 996 
3	202 994 995 
3	174 993 994 
3	322 992 993 
3	82 991 992 
3	41 990 991 
3	404 989 990 
3	86 988 989 
3	57 987 988 
3	421 986 987 
3	378 985 986 
3	49 984 985 
3	218 983 984 
3	371 982 983 
3	141 981 982 
3	27 980 981 
3	232 979 980 
3	241 978 979 
3	402 977 978 
3	355 976 977 
3	7 975 976 
3	274 974 975 
3	62 973 974 
3	460 972 973 
3	409 971 972 
3	129 970 971 
3	418 969 970 
3	447 968 969 
3	365 967 968 
3	449 966 967 
3	178 965 966 
3	2 964 965 
3	56 963 964 
3	356 962 963 
3	235 961 962 
3	248 960 961 
3	375 959 960 
3	225 958 959 
3	83 957 958 
3	204 956 957 
3	265 955 956 
3	171 954 955 
3	309 953 954 
3	333 952 953 
3	349 951 952 
3	145 950 951 
3	73 949 950 
3	180 948 949 
3	172 947 948 
3	91 946 947 
3	115 945 946 
3	334 944 945 
3	335 943 944 
3	75 942 943 
3	104 941 942 
3	176 940 941 
3	142 939 940 
3	165 938 939 
3	454 937 938 
3	350 936 937 
3	245 935 936 
3	14 934 935 
3	206 933 934 
3	200 932 933 
3	273 931 932 
3	390 930 931 
3	363 929 930 
3	4 928 929 
3	195 927 928 
3	304 926 927 
3	21 925 926 
3	68 924 925 
3	48 923 924 
3	456 922 923 
3	261 921 922 
3	201 920 921 
3	55 919 920 
3	123 918 919 
3	154 917 918 
3	131 916 917 
3	359 915 916 
3	158 914 915 
3	89 913 914 
3	170 912 913 
3	312 911 912 
3	219 910 911 
3	354 909 910 
3	182 908 909 
3	19 907 908 
3	197 906 907 
3	337 905 906 
3	451 904 905 
3	153 903 904 
3	426 902 903 
3	211 901 902 
3	441 900 901 
3	258 899 900 
3	117 898 899 
3	420 897 898 
3	166 896 897 
3	5 895 896 
3	429 894 895 
3	37 893 894 
3	42 892 893 
3	209 891 892 
3	440 890 891 
3	250 889 890 
3	60 888 889 
3	358 887 888 
3	152 886 887 
3	6 885 886 
3	126 884 885 
3	9 883 884 
3	290 882 883 
3	228 881 882 
3	370 880 881 
3	90 879 880 
3	292 878 879 
3	138 877 878 
3	457 876 877 
3	36 875 876 
3	300 874 875 
3	408 873 874 
3	268 872 873 
3	1 871 872 
3	276 870 871 
3	84 869 870 
3	92 868 869 
3	329 867 868 
3	316 866 867 
3	433 865 866 
3	64 864 865 
3	445 863 864 
3	284 862 863 
3	198 861 862 
3	96 860 861 
3	229 859 860 
3	114 858 859 
3	434 857 858 
1	857 
1	291 
3	233 341 856 
3	193 855 856 
3	0 854 855 
3	352 853 854 
3	305 852 853 
3	423 851 852 
3	25 850 851 
3	231 849 850 
3	313 848 849 
3	85 847 848 
3	465 846 847 
3	462 845 846 
3	431 844 845 
3	438 843 844 
3	168 842 843 
3	340 841 842 
3	289 840 841 
3	141 839 840 
3	27 838 839 
3	394 837 838 
3	339 836 837 
3	417 835 836 
3	34 834 835 
3	382 833 834 
3	325 832 833 
3	435 831 832 
3	257 830 831 
3	143 829 830 
3	278 828 829 
3	449 827 828 
3	385 826 827 
3	203 825 826 
3	375 824 825 
3	181 823 824 
3	26 822 823 
3	265 821 822 
3	307 820 821 
3	256 819 820 
3	270 818 819 
3	403 817 818 
3	411 816 817 
3	190 815 816 
3	255 814 815 
3	350 813 814 
3	321 812 813 
3	267 811 812 
3	191 810 811 
3	338 809 810 
3	194 808 809 
3	48 807 808 
3	55 806 807 
3	185 805 806 
3	196 804 805 
3	422 803 804 
3	318 802 803 
3	277 801 802 
3	220 800 801 
3	301 799 800 
3	116 798 799 
3	451 797 798 
3	22 796 797 
3	395 795 796 
3	287 794 795 
3	315 793 794 
3	258 792 793 
3	271 791 792 
3	317 790 791 
3	459 789 790 
3	179 788 789 
3	252 787 788 
3	262 786 787 
3	126 785 786 
3	353 784 785 
3	344 783 784 
3	29 782 783 
3	23 781 782 
3	102 780 781 
3	216 779 780 
3	388 778 779 
3	208 777 778 
3	284 776 777 
3	283 775 776 
3	298 774 775 
3	114 773 774 
3	260 772 773 
1	772 
3	177 450 771 
1	771 
3	193 233 770 
3	352 769 770 
3	0 768 769 
3	305 767 768 
3	267 766 767 
3	338 765 766 
3	313 764 765 
3	207 763 764 
3	196 762 763 
3	185 761 762 
3	95 760 761 
3	462 759 760 
3	422 758 759 
3	319 757 758 
3	58 756 757 
3	240 755 756 
3	399 754 755 
3	146 753 754 
3	431 752 753 
3	318 751 752 
3	277 750 751 
3	438 749 750 
3	135 748 749 
3	168 747 748 
3	294 746 747 
3	301 745 746 
3	116 744 745 
3	296 743 744 
3	287 742 743 
3	394 741 742 
3	317 740 741 
3	417 739 740 
3	34 738 739 
3	382 737 738 
3	325 736 737 
3	209 735 736 
3	416 734 735 
3	257 733 734 
3	252 732 733 
3	385 731 732 
3	181 730 731 
3	353 729 730 
3	344 728 729 
3	29 727 728 
3	23 726 727 
3	20 725 726 
3	102 724 725 
3	162 723 724 
3	398 722 723 
3	259 721 722 
3	270 720 721 
3	450 719 720 
3	216 718 719 
3	403 717 718 
3	208 716 717 
3	283 715 716 
3	298 714 715 
3	361 713 714 
3	260 712 713 
1	712 
3	18 177 711 
3	450 710 711 
3	58 709 710 
1	709 
3	0 193 708 
3	393 707 708 
3	464 706 707 
3	342 705 706 
3	191 704 705 
3	205 703 704 
3	79 702 703 
3	278 701 702 
3	194 700 701 
3	56 699 700 
3	410 698 699 
3	309 697 698 
3	87 696 697 
3	202 695 696 
3	306 694 695 
3	387 693 694 
3	372 692 693 
3	266 691 692 
3	192 690 691 
3	291 689 690 
3	451 688 689 
3	280 687 688 
3	364 686 687 
3	446 685 686 
3	190 684 685 
3	254 683 684 
1	683 
1	450 
3	146 398 682 
3	338 681 682 
3	462 680 681 
1	680 
3	341 352 679 
3	128 678 679 
3	163 677 678 
3	406 676 677 
3	207 675 676 
3	85 674 675 
3	97 673 674 
3	462 672 673 
3	167 671 672 
3	431 670 671 
3	306 669 670 
3	263 668 669 
3	72 667 668 
3	239 666 667 
3	222 665 666 
3	54 664 665 
3	343 663 664 
3	394 662 663 
3	417 661 662 
3	382 660 661 
3	325 659 660 
3	257 658 659 
3	416 657 658 
3	401 656 657 
3	143 655 656 
3	413 654 655 
3	385 653 654 
3	177 652 653 
3	203 651 652 
3	183 650 651 
3	398 649 650 
3	162 648 649 
3	106 647 648 
3	32 646 647 
3	190 645 646 
3	255 644 645 
3	386 643 644 
3	191 642 643 
3	405 641 642 
3	328 640 641 
3	80 639 640 
3	132 638 639 
3	338 637 638 
3	194 636 637 
3	452 635 636 
3	156 634 635 
3	137 633 634 
3	196 632 633 
3	98 631 632 
3	422 630 631 
3	240 629 630 
3	264 628 629 
3	414 627 628 
3	146 626 627 
3	148 625 626 
3	277 624 625 
3	135 623 624 
3	28 622 623 
3	244 621 622 
3	118 620 621 
3	116 619 620 
3	436 618 619 
3	381 617 618 
3	364 616 617 
3	315 615 616 
3	46 614 615 
3	112 613 614 
3	18 612 613 
3	317 611 612 
3	109 610 611 
3	253 609 610 
3	130 608 609 
3	326 607 608 
3	43 606 607 
3	179 605 606 
3	215 604 605 
3	368 603 604 
3	415 602 603 
3	344 601 602 
3	160 600 601 
3	23 599 600 
3	286 598 599 
3	125 597 598 
3	111 596 597 
3	281 595 596 
3	216 594 595 
3	208 593 594 
3	425 592 593 
3	187 591 592 
3	361 590 591 
3	310 589 590 
3	233 588 589 
3	238 587 588 
3	193 586 587 
3	107 585 586 
3	0 584 585 
3	305 583 584 
3	423 582 583 
3	119 581 582 
3	79 580 581 
3	313 579 580 
3	419 578 579 
3	95 577 578 
3	357 576 577 
3	439 575 576 
3	58 574 575 
3	399 573 574 
3	438 572 573 
3	279 571 572 
3	294 570 571 
3	168 569 570 
3	340 568 569 
3	227 567 568 
3	402 566 567 
3	336 565 566 
3	409 564 565 
3	34 563 564 
3	129 562 563 
3	210 561 562 
3	449 560 561 
3	295 559 560 
3	67 558 559 
3	235 557 558 
3	375 556 557 
3	181 555 556 
3	265 554 555 
3	333 553 554 
3	307 552 553 
3	259 551 552 
3	256 550 551 
3	270 549 550 
3	230 548 549 
3	144 547 548 
3	450 546 547 
3	330 545 546 
3	403 544 545 
3	350 543 544 
3	206 542 543 
3	383 541 542 
3	237 540 541 
3	267 539 540 
3	464 538 539 
3	348 537 538 
3	8 536 537 
3	48 535 536 
3	63 534 535 
3	55 533 534 
3	185 532 533 
3	319 531 532 
3	318 530 531 
3	35 529 530 
3	301 528 529 
3	451 527 528 
3	366 526 527 
3	296 525 526 
3	287 524 525 
3	258 523 524 
3	209 522 523 
3	459 521 522 
3	252 520 521 
3	152 519 520 
3	99 518 519 
3	88 517 518 
3	353 516 517 
3	31 515 516 
3	29 514 515 
3	20 513 514 
3	102 512 513 
3	51 511 512 
3	283 510 511 
3	298 509 510 
3	114 508 509 
3	260 507 508 
1	507 
3	177 314 506 
3	450 505 506 
3	380 504 505 
1	504 
3	130 148 503 
3	20 502 503 
3	209 501 502 
3	438 500 501 
3	35 499 500 
3	162 498 499 
3	294 497 498 
3	179 496 497 
3	405 495 496 
3	230 494 495 
3	450 493 494 
3	208 492 493 
3	185 491 492 
3	18 490 491 
3	95 489 490 
3	112 488 489 
3	317 487 488 
3	458 486 487 
1	486 
3	130 148 485 
3	20 484 485 
3	209 483 484 
3	438 482 483 
3	35 481 482 
3	162 480 481 
3	179 479 480 
3	294 478 479 
3	405 477 478 
3	230 476 477 
3	450 475 476 
3	208 474 475 
3	185 473 474 
3	18 472 473 
3	95 471 472 
3	112 470 471 
3	317 469 470 
3	458 468 469 
3	399 467 468 
1	467 
1	100 
1	205 
1	128 
1	53 
1	214 
1	108 
1	406 
1	85 
1	327 
1	212 
1	444 
1	167 
1	147 
1	151 
1	192 
1	72 
1	124 
1	222 
1	343 
1	339 
1	427 
1	417 
1	346 
1	257 
1	314 
1	401 
1	432 
1	76 
1	453 
1	345 
1	282 
1	246 
1	47 
1	299 
1	389 
1	217 
1	247 
1	150 
1	224 
1	162 
1	372 
1	127 
1	275 
1	32 
1	186 
1	446 
1	121 
1	411 
1	190 
1	455 
1	255 
1	463 
1	24 
1	191 
1	323 
1	328 
1	132 
1	461 
1	338 
1	196 
1	424 
1	374 
1	422 
1	240 
1	264 
1	414 
1	189 
1	396 
1	277 
1	188 
1	135 
1	28 
1	367 
1	30 
1	116 
1	280 
1	33 
1	293 
1	22 
1	392 
1	134 
1	46 
1	271 
1	112 
1	317 
1	199 
1	159 
1	179 
1	437 
1	71 
1	303 
1	249 
1	428 
1	93 
1	269 
1	368 
1	215 
1	397 
1	139 
1	344 
1	308 
1	12 
1	125 
1	391 
1	11 
1	243 
1	281 
1	70 
1	175 
1	466 
1	184 
1	233 
1	412 
1	107 
1	305 
1	423 
1	347 
1	17 
1	119 
1	66 
1	231 
1	136 
1	65 
1	351 
1	79 
1	164 
1	465 
1	297 
1	95 
1	362 
1	44 
1	58 
1	87 
1	399 
1	376 
1	120 
1	155 
1	438 
1	279 
1	174 
1	322 
1	41 
1	86 
1	289 
1	57 
1	378 
1	371 
1	27 
1	232 
1	241 
1	227 
1	402 
1	355 
1	62 
1	460 
1	418 
1	365 
1	278 
1	210 
1	380 
1	449 
1	295 
1	356 
1	67 
1	83 
1	181 
1	309 
1	333 
1	307 
1	73 
1	180 
1	91 
1	335 
1	270 
1	75 
1	104 
1	142 
1	350 
1	245 
1	206 
1	200 
1	383 
1	237 
1	390 
1	267 
1	348 
1	304 
1	21 
1	68 
1	8 
1	48 
1	63 
1	456 
1	261 
1	201 
1	55 
1	185 
1	154 
1	359 
1	158 
1	170 
1	312 
1	354 
1	19 
1	35 
1	220 
1	337 
1	301 
1	451 
1	153 
1	211 
1	296 
1	287 
1	441 
1	420 
1	166 
1	5 
1	429 
1	393 
1	42 
1	209 
1	60 
1	262 
1	358 
1	152 
1	126 
1	6 
1	99 
1	9 
1	228 
1	90 
1	88 
1	292 
1	36 
1	353 
1	300 
1	31 
1	408 
1	20 
1	102 
1	276 
1	329 
1	388 
1	51 
1	229 
1	114 
1	254 
1	260 
1	341 
1	352 
1	369 
1	38 
1	25 
1	163 
1	320 
1	207 
1	97 
1	462 
1	400 
1	13 
1	431 
1	263 
1	306 
1	387 
1	157 
1	239 
1	78 
1	442 
1	234 
1	54 
1	394 
1	443 
1	105 
1	373 
1	382 
1	325 
1	342 
1	416 
1	251 
1	143 
1	226 
1	413 
1	385 
1	177 
1	16 
1	377 
1	236 
1	203 
1	15 
1	26 
1	59 
1	272 
1	183 
1	39 
1	398 
1	311 
1	45 
1	266 
1	360 
1	133 
1	106 
1	94 
1	77 
1	213 
1	3 
1	386 
1	321 
1	458 
1	405 
1	80 
1	379 
1	452 
1	194 
1	156 
1	242 
1	137 
1	332 
1	430 
1	98 
1	103 
1	407 
1	146 
1	148 
1	40 
1	113 
1	291 
1	244 
1	118 
1	436 
1	381 
1	74 
1	384 
1	364 
1	395 
1	315 
1	61 
1	18 
1	331 
1	140 
1	109 
1	69 
1	253 
1	130 
1	326 
1	43 
1	221 
1	302 
1	101 
1	122 
1	81 
1	415 
1	410 
1	160 
1	288 
1	23 
1	286 
1	111 
1	448 
1	50 
1	216 
1	208 
1	425 
1	285 
1	187 
1	361 
1	310 
1	324 
1	173 
1	238 
1	193 
1	0 
1	223 
1	169 
1	110 
1	419 
1	313 
1	149 
1	357 
1	439 
1	52 
1	161 
1	10 
1	202 
1	168 
1	294 
1	82 
1	340 
1	404 
1	421 
1	49 
1	218 
1	141 
1	7 
1	336 
1	274 
1	409 
1	34 
1	435 
1	129 
1	447 
1	178 
1	2 
1	56 
1	235 
1	248 
1	375 
1	225 
1	265 
1	204 
1	171 
1	349 
1	145 
1	172 
1	115 
1	259 
1	256 
1	334 
1	144 
1	230 
1	450 
1	330 
1	403 
1	176 
1	165 
1	454 
1	14 
1	273 
1	363 
1	4 
1	464 
1	195 
1	123 
1	131 
1	319 
1	89 
1	318 
1	219 
1	182 
1	197 
1	366 
1	426 
1	258 
1	117 
1	37 
1	459 
1	440 
1	250 
1	252 
1	290 
1	370 
1	138 
1	457 
1	268 
1	29 
1	1 
1	84 
1	92 
1	316 
1	433 
1	64 
1	445 
1	284 
1	283 
1	198 
1	96 
1	298 
1	434 
0	

8
 1 0 0.01 0.99 0.3 0.7 0.003 0.997
2
 0.03 1
8
 1 0 0.9 0.1 0.9 0.1 0.81 0.19
8
 1 0 0 1 0.3 0 0.7 1
8
 1 0 0 1 0.5 0 0.5 1
8
 1 0 0 1 0.1 0 0.9 1
8
 1 0 0 1 0.9 0 0.1 1
8
 1 0 0 1 0.2 0 0.8 1
8
 1 0 0 1 0.9 0 0.1 1
8
 1 0 0 1 0.9 0 0.1 1
8
 1 0 0 1 0.7 0 0.3 1
8
 1 0 0 1 0.5 0 0.5 1
8
 1 0 0 1 0.5 0 0.5 1
8
 1 0 0 1 0.9 0 0.1 1
8
 1 0 0 1 0.9 0 0.1 1
8
 1 0 0 1 0.9 0 0.1 1
8
 1 0 0 1 0.72 0 0.28 1
8
 1 0 0 1 0.9 0 0.1 1
8
 1 0 0 1 0.9 0 0.1 1
8
 1 0 0 1 0.5 0 0.5 1
8
 1 0 0 1 0.5 0 0.5 1
8
 1 0 0 1 0.8 0 0.2 1
8
 1 0 0 1 0.9 0 0.1 1
8
 1 0 0 1 0.3 0 0.7 1
8
 1 0 0 1 0.8 0 0.2 1
8
 1 0 0 1 0.2 0 0.8 1
8
 1 0 0 1 0.75 0 0.25 1
8
 1 0 0 1 0.9 0 0.1 1
8
 1 0 0 1 0.7 0 0.3 1
8
 1 0 0 1 0.3 0 0.7 1
8
 1 0 0 1 0.8 0 0.2 1
8
 1 0 0 1 0.9 0 0.1 1
8
 1 0 0 1 0.8 0 0.2 1
8
 1 0 0 1 0.1 0 0.9 1
8
 1 0 0 1 0.9 0 0.1 1
8
 1 0 0 1 0.1 0 0.9 1
8
 1 0 0 1 0.9 0 0.1 1
8
 1 0 0 1 0.9 0 0.1 1
8
 1 0 0 1 0.5 0 0.5 1
8
 1 0 0 1 0.9 0 0.1 1
8
 1 0 0 1 0.9 0 0.1 1
8
 1 0 0 1 0.2 0 0.8 1
8
 1 0 0 1 0.7 0 0.3 1
8
 1 0 0 1 0.3 0 0.7 1
8
 1 0 0 1 0.4 0 0.6 1
8
 1 0 0 1 0.9 0 0.1 1
8
 1 0 0 1 0.01 0 0.99 1
8
 1 0 0 1 0.9 0 0.1 1
8
 1 0 0 1 0.5 0 0.5 1
8
 1 0 0 1 0.5 0 0.5 1
8
 1 0 0 1 0.85 0 0.15 1
8
 1 0 0 1 0.9 0 0.1 1
8
 1 0 0 1 0.09 0 0.91 1
8
 1 0 0 1 0.5 0 0.5 1
8
 1 0 0 1 0.5 0 0.5 1
8
 1 0 0 1 0.9 0 0.1 1
8
 1 0 0 1 0.5 0 0.5 1
8
 1 0 0 1 0.9 0 0.1 1
8
 1 0 0 1 0.1 0 0.9 1
8
 1 0 0 1 0.9 0 0.1 1
8
 1 0 0 1 0.9 0 0.1 1
8
 1 0 0 1 0.5 0 0.5 1
8
 1 0 0 1 0.5 0 0.5 1
8
 1 0 0 1 0.5 0 0.5 1
8
 1 0 0 1 0.9 0 0.1 1
8
 1 0 0 1 0.5 0 0.5 1
8
 1 0 0 1 0.5 0 0.5 1
8
 1 0 0 1 0.9 0 0.1 1
8
 1 0 0 1 0.5 0 0.5 1
8
 1 0 0 1 0.9 0 0.1 1
8
 1 0 0 1 0.3 0 0.7 1
8
 1 0 0 1 0.9 0 0.1 1
8
 1 0 0 1 0.5 0 0.5 1
8
 1 0 0 1 0.9 0 0.1 1
8
 1 0 0 1 0.1 0 0.9 1
8
 1 0 0 1 0.5 0 0.5 1
8
 1 0 0 1 0.9 0 0.1 1
8
 1 0 0 1 0.2 0 0.8 1
8
 1 0 0 1 0.9 0 0.1 1
8
 1 0 0 1 0.9 0 0.1 1
8
 1 0 0 1 0.6 0 0.4 1
8
 1 0 0 1 0.9 0 0.1 1
8
 1 0 0 1 0.9 0 0.1 1
8
 1 0 0 1 0 0 1 1
8
 1 0 0 1 0.05 0 0.95 1
8
 1 0 0 1 0.5 0 0.5 1
8
 1 0 0 1 0.9 0 0.1 1
8
 1 0 0 1 0.1 0 0.9 1
8
 1 0 0 1 0.9 0 0.1 1
8
 1 0 0 1 0.9 0 0.1 1
8
 1 0 0 1 0.2 0 0.8 1
8
 1 0 0 1 0.9 0 0.1 1
8
 1 0 0 1 0.9 0 0.1 1
8
 1 0 0 1 0.5 0 0.5 1
8
 1 0 0 1 0.9 0 0.1 1
8
 1 0 0 1 0.1 0 0.9 1
8
 1 0 0 1 0.1 0 0.9 1
8
 1 0 0 1 0.9 0 0.1 1
8
 1 0 0 1 0.5 0 0.5 1
8
 1 0 0 1 0.5 0 0.5 1
8
 1 0 0 1 0.9 0 0.1 1
8
 1 0 0 1 0.5 0 0.5 1
8
 1 0 0 1 0.4 0 0.6 1
8
 1 0 0 1 0.7 0 0.3 1
8
 1 0 0 1 0.5 0 0.5 1
8
 1 0 0 1 0.5 0 0.5 1
8
 1 0 0 1 0.9 0 0.1 1
8
 1 0 0 1 0.1 0 0.9 1
8
 1 0 0 1 0.5 0 0.5 1
8
 1 0 0 1 0.1 0 0.9 1
8
 1 0 0 1 0.9 0 0.1 1
8
 1 0 0 1 0.9 0 0.1 1
8
 1 0 0 1 0.5 0 0.5 1
8
 1 0 0 1 0.1 0 0.9 1
8
 1 0 0 1 0.9 0 0.1 1
8
 1 0 0 1 0.9 0 0.1 1
8
 1 0 0 1 0.9 0 0.1 1
8
 1 0 0 1 0.5 0 0.5 1
8
 1 0 0 1 0.5 0 0.5 1
8
 1 0 0 1 0.89 0 0.11 1
8
 1 0 0 1 0.9 0 0.1 1
8
 1 0 0 1 0.5 0 0.5 1
8
 1 0 0 1 0.47 0 0.53 1
8
 1 0 0 1 0.7 0 0.3 1
8
 1 0 0 1 0.5 0 0.5 1
8
 1 0 0 1 0.1 0 0.9 1
8
 1 0 0 1 0.7 0 0.3 1
8
 1 0 0 1 0.9 0 0.1 1
8
 1 0 0 1 0.1 0 0.9 1
8
 1 0 0 1 0.9 0 0.1 1
8
 1 0 0 1 0.9 0 0.1 1
8
 1 0 0 1 0.89 0 0.11 1
8
 1 0 0 1 0.5 0 0.5 1
8
 1 0 0 1 0.8 0 0.2 1
8
 1 0 0 1 0.9 0 0.1 1
8
 1 0 0 1 0.9 0 0.1 1
8
 1 0 0 1 0.2 0 0.8 1
8
 1 0 0 1 0.9 0 0.1 1
8
 1 0 0 1 0.19 0 0.81 1
8
 1 0 0 1 0.7 0 0.3 1
8
 1 0 0 1 0.89 0 0.11 1
8
 1 0 0 1 0.9 0 0.1 1
8
 1 0 0 1 0.8 0 0.2 1
8
 1 0 0 1 0.9 0 0.1 1
8
 1 0 0 1 0.9 0 0.1 1
8
 1 0 0 1 0.9 0 0.1 1
8
 1 0 0 1 0.3 0 0.7 1
8
 1 0 0 1 0.5 0 0.5 1
8
 1 0 0 1 0.9 0 0.1 1
8
 1 0 0 1 0.3 0 0.7 1
8
 1 0 0 1 0.5 0 0.5 1
8
 1 0 0 1 0.05 0 0.95 1
8
 1 0 0 1 0.9 0 0.1 1
8
 1 0 0 1 0.1 0 0.9 1
8
 1 0 0 1 0.2 0 0.8 1
8
 1 0 0 1 0.8 0 0.2 1
8
 1 0 0 1 0.9 0 0.1 1
8
 1 0 0 1 0.1 0 0.9 1
8
 1 0 0 1 0.01 0 0.99 1
8
 1 0 0 1 0.8 0 0.2 1
8
 1 0 0 1 0.5 0 0.5 1
8
 1 0 0 1 0.3 0 0.7 1
8
 1 0 0 1 0.9 0 0.1 1
8
 1 0 0 1 0.3 0 0.7 1
8
 1 0 0 1 0.5 0 0.5 1
8
 1 0 0 1 0.9 0 0.1 1
8
 1 0 0 1 0.4 0 0.6 1
8
 1 0 0 1 0.9 0 0.1 1
8
 1 0 0 1 0.09 0 0.91 1
8
 1 0 0 1 0.95 0 0.05 1
8
 1 0 0 1 0.3 0 0.7 1
8
 1 0 0 1 0.35 0 0.65 1
8
 1 0 0 1 0.5 0 0.5 1
8
 1 0 0 1 0.9 0 0.1 1
8
 1 0 0 1 0.5 0 0.5 1
8
 1 0 0 1 0.4 0 0.6 1
8
 1 0 0 1 0.8 0 0.2 1
8
 1 0 0 1 0.3 0 0.7 1
8
 1 0 0 1 0.5 0 0.5 1
8
 1 0 0 1 0.5 0 0.5 1
8
 1 0 0 1 0.9 0 0.1 1
8
 1 0 0 1 0.6 0 0.4 1
8
 1 0 0 1 0.9 0 0.1 1
8
 1 0 0 1 0.9 0 0.1 1
8
 1 0 0 1 0.9 0 0.1 1
8
 1 0 0 1 0.9 0 0.1 1
8
 1 0 0 1 0.9 0 0.1 1
8
 1 0 0 1 0.9 0 0.1 1
8
 1 0 0 1 0.01 0 0.99 1
8
 1 0 0 1 0.9 0 0.1 1
8
 1 0 0 1 0.2 0 0.8 1
8
 1 0 0 1 0.7 0 0.3 1
8
 1 0 0 1 0.7 0 0.3 1
8
 1 0 0 1 0.9 0 0.1 1
8
 1 0 0 1 0.5 0 0.5 1
8
 1 0 0 1 0.9 0 0.1 1
8
 1 0 0 1 0.98 0 0.02 1
8
 1 0 0 1 0.5 0 0.5 1
8
 1 0 0 1 0.5 0 0.5 1
8
 1 0 0 1 0.7 0 0.3 1
8
 1 0 0 1 0.5 0 0.5 1
8
 1 0 0 1 0.8 0 0.2 1
8
 1 0 0 1 0.9 0 0.1 1
8
 1 0 0 1 0.9 0 0.1 1
8
 1 0 0 1 0.4 0 0.6 1
8
 1 0 0 1 0.9 0 0.1 1
8
 1 0 0 1 0.5 0 0.5 1
8
 1 0 0 1 0.2 0 0.8 1
8
 1 0 0 1 0.9 0 0.1 1
8
 1 0 0 1 0.9 0 0.1 1
8
 1 0 0 1 0.5 0 0.5 1
8
 1 0 0 1 0.9 0 0.1 1
8
 1 0 0 1 0.9 0 0.1 1
8
 1 0 0 1 0.67 0 0.33 1
8
 1 0 0 1 0.5 0 0.5 1
8
 1 0 0 1 0.89 0 0.11 1
8
 1 0 0 1 0.3 0 0.7 1
8
 1 0 0 1 0.3 0 0.7 1
8
 1 0 0 1 0.9 0 0.1 1
8
 1 0 0 1 0.9 0 0.1 1
8
 1 0 0 1 0.1 0 0.9 1
8
 1 0 0 1 0.9 0 0.1 1
8
 1 0 0 1 0.34 0 0.66 1
8
 1 0 0 1 0.9 0 0.1 1
8
 1 0 0 1 0.9 0 0.1 1
8
 1 0 0 1 0.9 0 0.1 1
8
 1 0 0 1 0.5 0 0.5 1
8
 1 0 0 1 0.9 0 0.1 1
8
 1 0 0 1 0.9 0 0.1 1
8
 1 0 0 1 0.5 0 0.5 1
8
 1 0 0 1 0.5 0 0.5 1
8
 1 0 0 1 0.9 0 0.1 1
8
 1 0 0 1 0.9 0 0.1 1
8
 1 0 0 1 0.9 0 0.1 1
8
 1 0 0 1 0.7 0 0.3 1
8
 1 0 0 1 0.5 0 0.5 1
8
 1 0 0 1 0.9 0 0.1 1
8
 1 0 0 1 0.72 0 0.28 1
8
 1 0 0 1 0.72 0 0.28 1
8
 1 0 0 1 0.9 0 0.1 1
8
 1 0 0 1 0.9 0 0.1 1
8
 1 0 0 1 0.9 0 0.1 1
8
 1 0 0 1 0.25 0 0.75 1
8
 1 0 0 1 0.5 0 0.5 1
8
 1 0 0 1 0.7 0 0.3 1
8
 1 0 0 1 0.9 0 0.1 1
8
 1 0 0 1 0.9 0 0.1 1
8
 1 0 0 1 0.4 0 0.6 1
8
 1 0 0 1 0.9 0 0.1 1
8
 1 0 0 1 0.5 0 0.5 1
8
 1 0 0 1 0.9 0 0.1 1
8
 1 0 0 1 0.2 0 0.8 1
8
 1 0 0 1 0.8 0 0.2 1
8
 1 0 0 1 0.9 0 0.1 1
8
 1 0 0 1 0.5 0 0.5 1
8
 1 0 0 1 0.9 0 0.1 1
8
 1 0 0 1 0.5 0 0.5 1
8
 1 0 0 1 0.9 0 0.1 1
8
 1 0 0 1 0.9 0 0.1 1
8
 1 0 0 1 0.9 0 0.1 1
8
 1 0 0 1 0.9 0 0.1 1
8
 1 0 0 1 0.9 0 0.1 1
8
 1 0 0 1 0.9 0 0.1 1
8
 1 0 0 1 0.1 0 0.9 1
8
 1 0 0 1 0.5 0 0.5 1
8
 1 0 0 1 0.9 0 0.1 1
8
 1 0 0 1 0.9 0 0.1 1
8
 1 0 0 1 0.5 0 0.5 1
8
 1 0 0 1 0.7 0 0.3 1
8
 1 0 0 1 0.9 0 0.1 1
8
 1 0 0 1 0.9 0 0.1 1
8
 1 0 0 1 0.7 0 0.3 1
8
 1 0 0 1 0.9 0 0.1 1
8
 1 0 0 1 0.3 0 0.7 1
8
 1 0 0 1 0.3 0 0.7 1
8
 1 0 0 1 0.3 0 0.7 1
8
 1 0 0 1 0.9 0 0.1 1
8
 1 0 0 1 0.9 0 0.1 1
8
 1 0 0 1 0.3 0 0.7 1
8
 1 0 0 1 0.5 0 0.5 1
8
 1 0 0 1 0.1 0 0.9 1
8
 1 0 0 1 0.1 0 0.9 1
8
 1 0 0 1 0.3 0 0.7 1
8
 1 0 0 1 0.9 0 0.1 1
8
 1 0 0 1 0.2 0 0.8 1
8
 1 0 0 1 0.9 0 0.1 1
8
 1 0 0 1 0.9 0 0.1 1
8
 1 0 0 1 0.3 0 0.7 1
8
 1 0 0 1 0.5 0 0.5 1
8
 1 0 0 1 0.9 0 0.1 1
8
 1 0 0 1 0.8 0 0.2 1
8
 1 0 0 1 0.9 0 0.1 1
8
 1 0 0 1 0.6 0 0.4 1
2
 0.03 1
2
 0 0.8
8
 1 0 0.9 0.1 0.05 0.95 0.045 0.955
8
 1 0 0 1 0.9 0 0.1 1
8
 1 0 0 1 0.05 0 0.95 1
8
 1 0 0 1 0.05 0 0.95 1
8
 1 0 0 1 0.05 0 0.95 1
8
 1 0 0 1 0.9 0 0.1 1
8
 1 0 0 1 0.3 0 0.7 1
8
 1 0 0 1 0.3 0 0.7 1
8
 1 0 0 1 0.1 0 0.9 1
8
 1 0 0 1 0.9 0 0.1 1
8
 1 0 0 1 0.3 0 0.7 1
8
 1 0 0 1 0.05 0 0.95 1
8
 1 0 0 1 0.05 0 0.95 1
8
 1 0 0 1 0.05 0 0.95 1
8
 1 0 0 1 0.05 0 0.95 1
8
 1 0 0 1 0.5 0 0.5 1
8
 1 0 0 1 0.3 0 0.7 1
8
 1 0 0 1 0.5 0 0.5 1
8
 1 0 0 1 0.9 0 0.1 1
8
 1 0 0 1 0.05 0 0.95 1
8
 1 0 0 1 0.3 0 0.7 1
8
 1 0 0 1 0.05 0 0.95 1
8
 1 0 0 1 0.05 0 0.95 1
8
 1 0 0 1 0.05 0 0.95 1
8
 1 0 0 1 0.05 0 0.95 1
8
 1 0 0 1 0.5 0 0.5 1
8
 1 0 0 1 0.4 0 0.6 1
8
 1 0 0 1 0.9 0 0.1 1
8
 1 0 0 1 0.5 0 0.5 1
8
 1 0 0 1 0.7 0 0.3 1
8
 1 0 0 1 0.01 0 0.99 1
8
 1 0 0 1 0.9 0 0.1 1
8
 1 0 0 1 0.9 0 0.1 1
8
 1 0 0 1 0.05 0 0.95 1
8
 1 0 0 1 0.4 0 0.6 1
8
 1 0 0 1 0.9 0 0.1 1
8
 1 0 0 1 0.9 0 0.1 1
8
 1 0 0 1 0.75 0 0.25 1
8
 1 0 0 1 0.05 0 0.95 1
8
 1 0 0 1 0.05 0 0.95 1
8
 1 0 0 1 0.3 0 0.7 1
8
 1 0 0 1 0.9 0 0.1 1
8
 1 0 0 1 0.5 0 0.5 1
8
 1 0 0 1 0.9 0 0.1 1
8
 1 0 0 1 0.3 0 0.7 1
8
 1 0 0 1 0.05 0 0.95 1
8
 1 0 0 1 0.9 0 0.1 1
8
 1 0 0 1 0.5 0 0.5 1
8
 1 0 0 1 0.9 0 0.1 1
8
 1 0 0 1 0.9 0 0.1 1
8
 1 0 0 1 0.9 0 0.1 1
8
 1 0 0 1 0.05 0 0.95 1
8
 1 0 0 1 0.05 0 0.95 1
8
 1 0 0 1 0.05 0 0.95 1
8
 1 0 0 1 0.05 0 0.95 1
8
 1 0 0 1 0.05 0 0.95 1
8
 1 0 0 1 0.3 0 0.7 1
8
 1 0 0 1 0.05 0 0.95 1
8
 1 0 0 1 0.05 0 0.95 1
8
 1 0 0 1 0.9 0 0.1 1
8
 1 0 0 1 0.3 0 0.7 1
8
 1 0 0 1 0.5 0 0.5 1
8
 1 0 0 1 0.05 0 0.95 1
8
 1 0 0 1 0.1 0 0.9 1
8
 1 0 0 1 0.9 0 0.1 1
8
 1 0 0 1 0.89 0 0.11 1
8
 1 0 0 1 0.05 0 0.95 1
8
 1 0 0 1 0.9 0 0.1 1
8
 1 0 0 1 0.89 0 0.11 1
8
 1 0 0 1 0.05 0 0.95 1
8
 1 0 0 1 0.5 0 0.5 1
8
 1 0 0 1 0.09 0 0.91 1
8
 1 0 0 1 0.05 0 0.95 1
8
 1 0 0 1 0.02 0 0.98 1
8
 1 0 0 1 0.05 0 0.95 1
8
 1 0 0 1 0.2 0 0.8 1
8
 1 0 0 1 0.05 0 0.95 1
8
 1 0 0 1 0.05 0 0.95 1
8
 1 0 0 1 0.3 0 0.7 1
8
 1 0 0 1 0.05 0 0.95 1
8
 1 0 0 1 0.4 0 0.6 1
8
 1 0 0 1 0.05 0 0.95 1
8
 1 0 0 1 0.05 0 0.95 1
8
 1 0 0 1 0.9 0 0.1 1
8
 1 0 0 1 0.05 0 0.95 1
2
 0.03 1
8
 1 0 0.2 0.8 0.3 0.7 0.06 0.94
2
 0.03 1
8
 1 0 0 1 0 1 0 1
8
 1 0 0 1 0 0 1 1
8
 1 0 0 1 0 0 1 1
8
 1 0 0 1 0 0 1 1
8
 1 0 0 1 0 0 1 1
8
 1 0 0 1 0 0 1 1
8
 1 0 0 1 0 0 1 1
8
 1 0 0 1 0 0 1 1
8
 1 0 0 1 0 0 1 1
8
 1 0 0 1 0 0 1 1
8
 1 0 0 1 0 0 1 1
8
 1 0 0 1 0 0 1 1
8
 1 0 0 1 0 0 1 1
8
 1 0 0 1 0 0 1 1
8
 1 0 0 1 0 0 1 1
8
 1 0 0 1 0 0 1 1
8
 1 0 0 1 0 0 1 1
8
 1 0 0 1 0 0 1 1
8
 1 0 0 1 0 0 1 1
8
 1 0 0 1 0 0 1 1
8
 1 0 0 1 0 0 1 1
8
 1 0 0 1 0 0 1 1
8
 1 0 0 1 0 0 1 1
8
 1 0 0 1 0 0 1 1
8
 1 0 0 1 0 0 1 1
8
 1 0 0 1 0 0 1 1
8
 1 0 0 1 0 0 1 1
8
 1 0 0 1 0 0 1 1
8
 1 0 0 1 0 0 1 1
8
 1 0 0 1 0 0 1 1
8
 1 0 0 1 0 0 1 1
8
 1 0 0 1 0 0 1 1
8
 1 0 0 1 0 0 1 1
8
 1 0 0 1 0 0 1 1
8
 1 0 0 1 0 0 1 1
8
 1 0 0 1 0 0 1 1
8
 1 0 0 1 0 0 1 1
8
 1 0 0 1 0 0 1 1
8
 1 0 0 1 0 0 1 1
8
 1 0 0 1 0 0 1 1
8
 1 0 0 1 0 0 1 1
8
 1 0 0 1 0 0 1 1
8
 1 0 0 1 0 0 1 1
8
 1 0 0 1 0 0 1 1
8
 1 0 0 1 0 0 1 1
8
 1 0 0 1 0 0 1 1
8
 1 0 0 1 0 0 1 1
8
 1 0 0 1 0 0 1 1
8
 1 0 0 1 0 0 1 1
8
 1 0 0 1 0 0 1 1
8
 1 0 0 1 0 0 1 1
8
 1 0 0 1 0 0 1 1
8
 1 0 0 1 0 0 1 1
8
 1 0 0 1 0 0 1 1
8
 1 0 0 1 0 0 1 1
8
 1 0 0 1 0 0 1 1
8
 1 0 0 1 0 0 1 1
8
 1 0 0 1 0 0 1 1
8
 1 0 0 1 0 0 1 1
2
 0.03 1
8
 1 0 0.3 0.7 0.5 0.5 0.15 0.85
8
 1 0 0 1 0 0 1 1
8
 1 0 0 1 0.01 0 0.99 1
2
 0.03 1
8
 1 0 0.4 0.6 0.6 0.4 0.24 0.76
8
 1 0 0 1 0.02 0 0.98 1
8
 1 0 0 1 0.6 0 0.4 1
8
 1 0 0 1 0 0 1 1
8
 1 0 0 1 0.4 0 0.6 1
8
 1 0 0 1 0.5 0 0.5 1
8
 1 0 0 1 0.5 0 0.5 1
8
 1 0 0 1 0.89 0 0.11 1
8
 1 0 0 1 0.4 0 0.6 1
8
 1 0 0 1 0.4 0 0.6 1
8
 1 0 0 1 0.02 0 0.98 1
8
 1 0 0 1 0.4 0 0.6 1
8
 1 0 0 1 0.4 0 0.6 1
8
 1 0 0 1 0.4 0 0.6 1
8
 1 0 0 1 0.89 0 0.11 1
8
 1 0 0 1 0.1 0 0.9 1
8
 1 0 0 1 0.05 0 0.95 1
8
 1 0 0 1 0.02 0 0.98 1
8
 1 0 0 1 0.4 0 0.6 1
8
 1 0 0 1 0.01 0 0.99 1
8
 1 0 0 1 0.4 0 0.6 1
8
 1 0 0 1 0 0 1 1
8
 1 0 0 1 0.4 0 0.6 1
8
 1 0 0 1 0.05 0 0.95 1
8
 1 0 0 1 0.4 0 0.6 1
8
 1 0 0 1 0.1 0 0.9 1
2
 0.03 1
2
 0 0.95
8
 1 0 0 1 0 1 0 1
8
 1 0 0 1 0 0 1 1
8
 1 0 0 1 0 0 1 1
2
 0.03 1
8
 1 0 0 1 0.9 0.1 0 1
8
 1 0 0 1 0.2 0 0.8 1
8
 1 0 0 1 0.4 0 0.6 1
8
 1 0 0 1 0.5 0 0.5 1
8
 1 0 0 1 0 0 1 1
8
 1 0 0 1 0.9 0 0.1 1
8
 1 0 0 1 0.5 0 0.5 1
8
 1 0 0 1 0.89 0 0.11 1
8
 1 0 0 1 0.5 0 0.5 1
8
 1 0 0 1 0 0 1 1
8
 1 0 0 1 0.89 0 0.11 1
8
 1 0 0 1 0.5 0 0.5 1
8
 1 0 0 1 0.4 0 0.6 1
8
 1 0 0 1 0.1 0 0.9 1
8
 1 0 0 1 0.5 0 0.5 1
8
 1 0 0 1 0.5 0 0.5 1
8
 1 0 0 1 0.1 0 0.9 1
8
 1 0 0 1 0 0 1 1
8
 1 0 0 1 0.5 0 0.5 1
8
 1 0 0 1 0.01 0 0.99 1
8
 1 0 0 1 0 0 1 1
8
 1 0 0 1 0 0 1 1
8
 1 0 0 1 0 0 1 1
8
 1 0 0 1 0.5 0 0.5 1
8
 1 0 0 1 0.9 0 0.1 1
8
 1 0 0 1 0.5 0 0.5 1
8
 1 0 0 1 0 0 1 1
8
 1 0 0 1 0.5 0 0.5 1
8
 1 0 0 1 0.9 0 0.1 1
8
 1 0 0 1 0.5 0 0.5 1
8
 1 0 0 1 0.1 0 0.9 1
8
 1 0 0 1 0 0 1 1
8
 1 0 0 1 0.1 0 0.9 1
8
 1 0 0 1 0.5 0 0.5 1
8
 1 0 0 1 0.9 0 0.1 1
8
 1 0 0 1 0.5 0 0.5 1
8
 1 0 0 1 0.5 0 0.5 1
8
 1 0 0 1 0.9 0 0.1 1
8
 1 0 0 1 0.09 0 0.91 1
8
 1 0 0 1 0.5 0 0.5 1
8
 1 0 0 1 0.1 0 0.9 1
8
 1 0 0 1 0.5 0 0.5 1
8
 1 0 0 1 0.5 0 0.5 1
8
 1 0 0 1 0.9 0 0.1 1
8
 1 0 0 1 0.09 0 0.91 1
8
 1 0 0 1 0.5 0 0.5 1
8
 1 0 0 1 0.5 0 0.5 1
8
 1 0 0 1 0 0 1 1
8
 1 0 0 1 0.5 0 0.5 1
8
 1 0 0 1 0 0 1 1
8
 1 0 0 1 0 0 1 1
8
 1 0 0 1 0.5 0 0.5 1
8
 1 0 0 1 0.1 0 0.9 1
8
 1 0 0 1 0.5 0 0.5 1
8
 1 0 0 1 0.57 0 0.43 1
8
 1 0 0 1 0 0 1 1
8
 1 0 0 1 0 0 1 1
8
 1 0 0 1 0.5 0 0.5 1
8
 1 0 0 1 0.5 0 0.5 1
8
 1 0 0 1 0.9 0 0.1 1
8
 1 0 0 1 0 0 1 1
8
 1 0 0 1 0.5 0 0.5 1
8
 1 0 0 1 0.1 0 0.9 1
8
 1 0 0 1 0.5 0 0.5 1
8
 1 0 0 1 0.1 0 0.9 1
8
 1 0 0 1 0.5 0 0.5 1
8
 1 0 0 1 0.4 0 0.6 1
8
 1 0 0 1 0.5 0 0.5 1
8
 1 0 0 1 0 0 1 1
8
 1 0 0 1 0.5 0 0.5 1
8
 1 0 0 1 0.9 0 0.1 1
8
 1 0 0 1 0.5 0 0.5 1
8
 1 0 0 1 0.89 0 0.11 1
8
 1 0 0 1 0.5 0 0.5 1
8
 1 0 0 1 0.5 0 0.5 1
8
 1 0 0 1 0.5 0 0.5 1
8
 1 0 0 1 0.4 0 0.6 1
8
 1 0 0 1 0.5 0 0.5 1
8
 1 0 0 1 0 0 1 1
8
 1 0 0 1 0.1 0 0.9 1
8
 1 0 0 1 0.6 0 0.4 1
8
 1 0 0 1 0.5 0 0.5 1
8
 1 0 0 1 0.1 0 0.9 1
8
 1 0 0 1 0.4 0 0.6 1
8
 1 0 0 1 0.5 0 0.5 1
8
 1 0 0 1 0 0 1 1
8
 1 0 0 1 0 0 1 1
8
 1 0 0 1 0.1 0 0.9 1
8
 1 0 0 1 0.59 0 0.41 1
8
 1 0 0 1 0 0 1 1
8
 1 0 0 1 0.4 0 0.6 1
8
 1 0 0 1 0 0 1 1
8
 1 0 0 1 0.5 0 0.5 1
8
 1 0 0 1 0.9 0 0.1 1
8
 1 0 0 1 0.5 0 0.5 1
8
 1 0 0 1 0 0 1 1
8
 1 0 0 1 0 0 1 1
8
 1 0 0 1 0.9 0 0.1 1
8
 1 0 0 1 0.4 0 0.6 1
8
 1 0 0 1 0.5 0 0.5 1
8
 1 0 0 1 0.1 0 0.9 1
8
 1 0 0 1 0.4 0 0.6 1
8
 1 0 0 1 0 0 1 1
8
 1 0 0 1 0.5 0 0.5 1
8
 1 0 0 1 0.09 0 0.91 1
8
 1 0 0 1 0 0 1 1
8
 1 0 0 1 0 0 1 1
8
 1 0 0 1 0 0 1 1
8
 1 0 0 1 0.89 0 0.11 1
8
 1 0 0 1 0 0 1 1
8
 1 0 0 1 0 0 1 1
8
 1 0 0 1 0.5 0 0.5 1
8
 1 0 0 1 0.5 0 0.5 1
8
 1 0 0 1 0.5 0 0.5 1
8
 1 0 0 1 0.5 0 0.5 1
8
 1 0 0 1 0.5 0 0.5 1
8
 1 0 0 1 0 0 1 1
8
 1 0 0 1 0.5 0 0.5 1
8
 1 0 0 1 0.4 0 0.6 1
8
 1 0 0 1 0.7 0 0.3 1
8
 1 0 0 1 0.5 0 0.5 1
8
 1 0 0 1 0.89 0 0.11 1
8
 1 0 0 1 0.5 0 0.5 1
8
 1 0 0 1 0.9 0 0.1 1
8
 1 0 0 1 0 0 1 1
8
 1 0 0 1 0.9 0 0.1 1
8
 1 0 0 1 0.5 0 0.5 1
8
 1 0 0 1 0.5 0 0.5 1
8
 1 0 0 1 0 0 1 1
8
 1 0 0 1 0.75 0 0.25 1
8
 1 0 0 1 0 0 1 1
8
 1 0 0 1 0.09 0 0.91 1
8
 1 0 0 1 0.5 0 0.5 1
8
 1 0 0 1 0 0 1 1
8
 1 0 0 1 0.5 0 0.5 1
8
 1 0 0 1 0 0 1 1
8
 1 0 0 1 0.9 0 0.1 1
8
 1 0 0 1 0.7 0 0.3 1
8
 1 0 0 1 0.4 0 0.6 1
8
 1 0 0 1 0.1 0 0.9 1
8
 1 0 0 1 0 0 1 1
8
 1 0 0 1 0.6 0 0.4 1
8
 1 0 0 1 0.5 0 0.5 1
8
 1 0 0 1 0.4 0 0.6 1
8
 1 0 0 1 0.9 0 0.1 1
8
 1 0 0 1 0.5 0 0.5 1
8
 1 0 0 1 0.9 0 0.1 1
8
 1 0 0 1 0 0 1 1
8
 1 0 0 1 0 0 1 1
8
 1 0 0 1 0 0 1 1
8
 1 0 0 1 0.09 0 0.91 1
8
 1 0 0 1 0 0 1 1
8
 1 0 0 1 0.9 0 0.1 1
8
 1 0 0 1 0.5 0 0.5 1
8
 1 0 0 1 0 0 1 1
8
 1 0 0 1 0 0 1 1
8
 1 0 0 1 0.9 0 0.1 1
8
 1 0 0 1 0 0 1 1
8
 1 0 0 1 0.9 0 0.1 1
8
 1 0 0 1 0 0 1 1
8
 1 0 0 1 0.05 0 0.95 1
8
 1 0 0 1 0.5 0 0.5 1
8
 1 0 0 1 0.5 0 0.5 1
8
 1 0 0 1 0 0 1 1
8
 1 0 0 1 0.5 0 0.5 1
8
 1 0 0 1 0 0 1 1
8
 1 0 0 1 0.1 0 0.9 1
8
 1 0 0 1 0 0 1 1
8
 1 0 0 1 0.5 0 0.5 1
8
 1 0 0 1 0 0 1 1
8
 1 0 0 1 0 0 1 1
8
 1 0 0 1 0.9 0 0.1 1
8
 1 0 0 1 0.01 0 0.99 1
2
 0.03 1
8
 1 0 0.5 0.5 0.3 0.7 0.15 0.85
8
 1 0 0 1 0.05 0 0.95 1
8
 1 0 0 1 0.5 0 0.5 1
2
 0.03 1
8
 1 0 0.57 0.43 0.5 0.5 0.285 0.715
8
 1 0 0 1 0.1 0 0.9 1
8
 1 0 0 1 0 0 1 1
8
 1 0 0 1 0.09 0 0.91 1
8
 1 0 0 1 0.5 0 0.5 1
8
 1 0 0 1 0.1 0 0.9 1
8
 1 0 0 1 0 0 1 1
8
 1 0 0 1 0.5 0 0.5 1
8
 1 0 0 1 0.5 0 0.5 1
8
 1 0 0 1 0.5 0 0.5 1
8
 1 0 0 1 0 0 1 1
8
 1 0 0 1 0.01 0 0.99 1
8
 1 0 0 1 0.5 0 0.5 1
8
 1 0 0 1 0.5 0 0.5 1
8
 1 0 0 1 0 0 1 1
8
 1 0 0 1 0.4 0 0.6 1
8
 1 0 0 1 0.1 0 0.9 1
8
 1 0 0 1 0.01 0 0.99 1
2
 0.03 1
8
 1 0 0.57 0.43 0.5 0.5 0.285 0.715
8
 1 0 0 1 0.1 0 0.9 1
8
 1 0 0 1 0.01 0 0.99 1
8
 1 0 0 1 0.09 0 0.91 1
8
 1 0 0 1 0.5 0 0.5 1
8
 1 0 0 1 0.1 0 0.9 1
8
 1 0 0 1 0.5 0 0.5 1
8
 1 0 0 1 0.01 0 0.99 1
8
 1 0 0 1 0.5 0 0.5 1
8
 1 0 0 1 0.5 0 0.5 1
8
 1 0 0 1 0.05 0 0.95 1
8
 1 0 0 1 0.01 0 0.99 1
8
 1 0 0 1 0.5 0 0.5 1
8
 1 0 0 1 0.5 0 0.5 1
8
 1 0 0 1 0.01 0 0.99 1
8
 1 0 0 1 0.4 0 0.6 1
8
 1 0 0 1 0.1 0 0.9 1
8
 1 0 0 1 0.01 0 0.99 1
8
 1 0 0 1 0.2 0 0.8 1
2
 0.03 1
2
 1 1.8e-07
2
 0.9999 0.0001
2
 0.99999 1e-05
2
 1 8e-08
2
 1 9e-08
2
 0.99999 1e-05
2
 0.99999 1e-05
2
 0.99975 0.00025
2
 0.999993 7e-06
2
 0.99995 5e-05
2
 1 4e-08
2
 0.99999 1e-05
2
 0.999999 1.4e-06
2
 0.999998 2e-06
2
 0.9999 0.0001
2
 0.9999 0.0001
2
 0.999977 2.342e-05
2
 0.99989 0.00011
2
 0.9999 0.0001
2
 0.9999 0.0001
2
 1 1e-08
2
 0.99998 2e-05
2
 0.99998 2.042e-05
2
 0.99995 5e-05
2
 0.99992 8e-05
2
 0.99974 0.00026
2
 1 1e-08
2
 0.9993 0.0007
2
 0.99988 0.00012
2
 1 1.1e-07
2
 0.99809 0.00191
2
 0.999996 3.64e-06
2
 0.999999 1.448e-06
2
 0.9998 0.0002
2
 0.99999 1e-05
2
 0.999999 1.26e-06
2
 0.99996 4e-05
2
 0.99998 2e-05
2
 0.9999 0.0001
2
 0.99998 2e-05
2
 0.9998 0.0002
2
 1 1e-08
2
 0.9995 0.0005
2
 0.9999 0.0001
2
 0.9992 0.0008
2
 0.9999 0.0001
2
 1 1e-08
2
 0.9991 0.0009
2
 0.99992 8e-05
2
 0.9995 0.0005
2
 0.9999 0.0001
2
 0.99989 0.00011
2
 0.99991 9e-05
2
 0.9996 0.0004
2
 0.999957 4.295e-05
2
 0.99995 5e-05
2
 0.9995 0.0005
2
 1 6e-08
2
 0.99999 1e-05
2
 0.9999 0.0001
2
 1 1.1e-07
2
 0.999999 1e-06
2
 0.9999 0.0001
2
 0.9995 0.0005
2
 0.99995 5e-05
2
 0.9999 0.0001
2
 0.99991 9e-05
2
 0.9998 0.0002
2
 0.9996 0.0004
2
 1 8e-08
2
 0.99998 2e-05
2
 0.99999 1e-05
2
 0.99986 0.00014
2
 0.99982 0.00018
2
 0.9999 0.0001
2
 0.999999 1e-06
2
 1 4e-08
2
 0.99995 5e-05
2
 0.9997 0.0003
2
 0.99995 5e-05
2
 0.999999 6.9e-07
2
 0.9991 0.0009
2
 0.99993 7e-05
2
 0.9998 0.0002
2
 0.9998 0.0002
2
 0.99984 0.00016
2
 0.9999 0.0001
2
 0.9999 0.0001
2
 0.99999 1e-05
2
 0.999989 1.08e-05
2
 0.99995 5e-05
2
 0.9975 0.0025
2
 0.9995 0.0005
2
 0.99994 6e-05
2
 0.9998 0.0002
2
 0.9999 0.0001
2
 0.9997 0.0003
2
 0.99991 9e-05
2
 0.99989 0.00011
2
 0.99993 7e-05
2
 0.999999 1e-06
2
 0.9999 0.0001
2
 0.9999 0.0001
2
 0.9999 0.0001
2
 0.99991 9e-05
2
 1 3.6e-07
2
 0.9999 0.0001
2
 0.9995 0.0005
2
 1 1e-08
2
 1 4e-08
2
 0.99989 0.00011
2
 0.9999 0.0001
2
 0.999999 6.6e-07
2
 0.9999 0.0001
2
 0.9999 0.0001
2
 0.999977 2.291e-05
2
 1 1.7e-07
2
 0.999999 1.2e-06
2
 0.998 0.002
2
 0.999 0.001
2
 0.9991 0.0009
2
 0.999999 1e-06
2
 0.999981 1.92e-05
2
 0.9999 0.0001
2
 0.99989 0.00011
2
 0.999959 4.084e-05
2
 1 2e-07
2
 0.9995 0.0005
2
 0.99975 0.00025
2
 0.999999 1e-06
2
 0.99998 2.003e-05
2
 0.9985 0.0015
2
 0.9999 0.0001
2
 0.99987 0.00013
2
 0.999998 2e-06
2
 0.99989 0.00011
2
 0.9997 0.0003
2
 0.99995 5e-05
2
 0.99999 1e-05
2
 1 1e-08
2
 0.9995 0.0005
2
 0.9998 0.0002
2
 1 2.8e-07
2
 0.999 0.001
2
 0.999991 8.59e-06
2
 0.99995 5e-05
2
 1 1e-08
2
 0.994 0.006
2
 0.999999 1e-06
2
 0.99999 1e-05
2
 0.99995 5e-05
2
 0.9999 0.0001
2
 0.9991 0.0009
2
 1 1e-08
2
 0.9999 0.0001
2
 0.999999 1e-06
2
 0.999995 5.23e-06
2
 0.9999 0.0001
2
 0.999996 4e-06
2
 0.9999 0.0001
2
 1 1.6e-07
2
 0.9999 0.0001
2
 0.99962 0.00038
2
 0.9999 0.0001
2
 0.99998 2e-05
2
 0.9999 0.0001
2
 0.99989 0.00011
2
 0.9999 0.0001
2
 0.999969 3.12e-05
2
 0.999999 5.9e-07
2
 0.999999 1e-06
2
 0.9992 0.0008
2
 0.999993 6.77e-06
2
 0.9999 0.0001
2
 1 5e-08
2
 0.999982 1.82e-05
2
 0.9995 0.0005
2
 0.99999 1e-05
2
 1 1.4e-07
2
 0.9998 0.0002
2
 0.999953 4.733e-05
2
 0.9999 0.0001
2
 0.9999 0.0001
2
 1 1e-08
2
 0.9999 0.0001
2
 0.9995 0.0005
2
 0.99994 6e-05
2
 1 1e-08
2
 0.99989 0.00011
2
 0.99991 9e-05
2
 0.99991 9e-05
2
 0.9999 0.0001
2
 0.999997 3.18e-06
2
 0.99987 0.00013
2
 1 1e-08
2
 0.9999 0.0001
2
 0.99995 5e-05
2
 1 9e-08
2
 1 1.1e-07
2
 0.99997 3e-05
2
 1 2.9e-07
2
 1 6e-08
2
 1 2e-08
2
 0.999992 7.67e-06
2
 1 3.204e-09
2
 0.998 0.002
2
 0.999994 6e-06
2
 0.9999 0.0001
2
 0.9998 0.0002
2
 0.99989 0.00011
2
 0.999999 1e-06
2
 0.99997 3e-05
2
 0.99997 3e-05
2
 0.999555 0.00044466
2
 0.999999 1e-06
2
 0.999998 2.143e-06
2
 0.999999 1e-06
2
 1 5e-07
2
 0.99998 2e-05
2
 1 1e-08
2
 0.99989 0.00011
2
 1 1e-08
2
 0.9998 0.0002
2
 0.999985 1.48e-05
2
 0.9999 0.0001
2
 0.99995 5e-05
2
 0.999999 1e-06
2
 0.9999 0.0001
2
 1 1e-08
2
 1 1e-08
2
 1 1.1e-07
2
 0.99997 3e-05
2
 1 1e-07
2
 1 1e-07
2
 0.9999 0.0001
2
 0.99997 3e-05
2
 0.99999 1e-05
2
 0.9997 0.0003
2
 0.99996 4e-05
2
 0.9999 0.0001
2
 0.999585 0.000415
2
 0.999991 9.42e-06
2
 0.9995 0.0005
2
 0.9998 0.0002
2
 0.9997 0.0003
2
 0.9999 0.0001
2
 0.9996 0.0004
2
 0.99993 7e-05
2
 1 1.25e-07
2
 0.99995 5e-05
2
 1 3.3e-07
2
 0.99995 5e-05
2
 0.9992 0.0008
2
 0.9999 0.0001
2
 0.999999 8.1e-07
2
 0.999 0.001
2
 0.99999 1e-05
2
 0.99995 5e-05
2
 0.99999 1e-05
2
 0.99989 0.00011
2
 0.9999 0.0001
2
 0.99975 0.00025
2
 0.9999 0.0001
2
 0.9995 0.0005
2
 0.999996 3.67e-06
2
 0.999999 1e-06
2
 0.999995 5.26e-06
2
 0.9985 0.0015
2
 0.999943 5.69e-05
2
 0.9999 0.0001
2
 0.9999 0.0001
2
 0.99999 9.61e-06
2
 0.999913 8.704e-05
2
 0.999999 9.9e-07
2
 0.99999 1e-05
2
 0.9999 0.0001
2
 0.99995 5e-05
2
 0.998 0.002
2
 1 6e-08
2
 0.999998 2e-06
2
 0.999999 1e-06
2
 0.99989 0.00011
2
 0.99995 5e-05
2
 0.9999 0.0001
2
 0.999964 3.587e-05
2
 0.99974 0.00026
2
 0.9994 0.0006
2
 0.99996 4e-05
2
 0.99989 0.00011
2
 0.99946 0.00054
2
 0.999995 5.24e-06
2
 0.9999 0.0001
2
 0.99981 0.00019
2
 0.9999 0.0001
2
 0.9999 0.0001
2
 0.9999 0.0001
2
 1 1e-08
2
 0.999998 2e-06
2
 1 1.7e-07
2
 1 1.2e-07
2
 0.9999 0.0001
2
 0.999991 8.64e-06
2
 1 1.1e-07
2
 0.999996 3.57e-06
2
 0.9999 0.0001
2
 0.99999 1e-05
2
 0.9999 0.0001
2
 0.99998 2e-05
2
 1 8e-10
2
 0.9999 0.0001
2
 1 9e-08
2
 1 2.225e-09
2
 0.999973 2.7e-05
2
 0.99999 1e-05
2
 1 1.1e-07
2
 0.9999 0.0001
2
 0.999999 6e-07
2
 1 2e-07
2
 0.9991 0.0009
2
 1 1.6e-07
2
 1 1e-08
2
 0.99985 0.00015
2
 0.9999 0.0001
2
 1 2e-08
2
 0.999999 1e-06
2
 0.9998 0.0002
2
 0.9999 0.0001
2
 0.9998 0.0002
2
 0.9995 0.0005
2
 0.99999 1e-05
2
 1 1e-08
2
 0.999997 2.88e-06
2
 1 2.5e-08
2
 0.99922 0.00078
2
 0.9998 0.0002
2
 1 1e-08
2
 0.99995 5e-05
2
 0.9999 0.0001
2
 0.99989 0.00011
2
 0.9998 0.0002
2
 1 5e-07
2
 0.9994 0.0006
2
 0.99999 1e-05
2
 0.9999 0.0001
2
 0.9995 0.0005
2
 0.99995 5e-05
2
 0.999999 1e-06
2
 0.99999 1e-05
2
 1 7e-08
2
 0.9995 0.0005
2
 0.99984 0.00016
2
 0.999999 1e-06
2
 0.9996 0.0004
2
 0.9999 0.0001
2
 0.99997 3e-05
2
 0.999 0.001
2
 0.998 0.002
2
 1 4e-08
2
 0.999998 2e-06
2
 0.9999 0.0001
2
 0.99998 2e-05
2
 0.99995 5e-05
2
 0.99984 0.00016
2
 0.9995 0.0005
2
 0.9999 0.0001
2
 0.9982 0.0018
2
 0.999998 2.24e-06
2
 0.99975 0.00025
2
 0.99996 4e-05
2
 0.99985 0.00015
2
 0.9999 0.0001
2
 0.999999 1e-06
2
 0.9998 0.0002
2
 0.999838 0.0001616
2
 0.9999 0.0001
2
 0.99995 5e-05
2
 1 1e-08
2
 0.9996 0.0004
2
 1 1.25e-09
2
 0.9995 0.0005
2
 1 2.3e-07
2
 0.999979 2.06e-05
2
 0.999999 6.2e-07
2
 0.99998 2e-05
2
 0.9999 0.0001
2
 0.99974 0.00026
2
 1 1.2e-07
2
 0.999999 6.6e-07
2
 0.99985 0.00015
2
 0.999994 6.29e-06
2
 0.999921 7.933e-05
2
 0.9996 0.0004
2
 0.9997 0.0003
2
 0.99998 2e-05
2
 0.999997 2.82e-06
2
 0.99999 1e-05
2
 0.9999 0.0001
2
 0.9995 0.0005
2
 0.9999 0.0001
2
 1 2e-08
2
 1 2e-08
2
 1 3.1e-07
2
 0.9994 0.0006
2
 0.9999 0.0001
2
 0.9995 0.0005
2
 0.999907 9.332e-05
2
 0.999998 2e-06
2
 0.9994 0.0006
2
 1 1e-08
2
 0.999993 6.69e-06
2
 0.999999 5.4e-07
2
 0.999993 6.53e-06
2
 0.999999 1e-06
2
 0.999999 1e-06
2
 0.99995 5e-05
2
 0.999992 8e-06
2
 1 4e-08
2
 0.9999 0.0001
2
 0.99975 0.00025
2
 0.9823 0.0177
2
 0.99999 1e-05
2
 0.9999 0.0001
2
 1 2.9e-07
2
 1 1.1e-07
2
 0.999994 6.39e-06
2
 0.9999 0.0001
2
 0.99999 1e-05
2
 0.99999 1e-05
2
 0.999921 7.93e-05
2
 0.999 0.001
2
 0.9999 0.0001
2
 0.99999 1e-05
2
 0.999722 0.0002777
2
 0.99997 3e-05
2
 0.9995 0.0005
2
 0.99995 5e-05
2
 0.99997 3e-05
2
 0.9997 0.0003
2
 0.9995 0.0005
2
 0.9999 0.0001
2
 1 5e-07
2
 0.9999 0.0001
2
 1 1e-08
2
 0.9991 0.0009
2
 0.9995 0.0005
2
 1 1e-08
2
 0.99994 6.019e-05
2
 0.9999 0.0001
2
 0.9995 0.0005
2
 0.99875 0.00125
2
 0.99989 0.00011
2
 0.99989 0.00011
2
 0.999999 1e-06
2
 0.9999 0.0001
2
 0.99997 3e-05
2
 1 1.1e-07
2
 0.9999 0.0001
2
 1 4e-08
2
 0.99997 3e-05
2
 0.999974 2.595e-05
2
 1 5e-08
2
 0.9994 0.0006
2
 0.99997 3e-05
2
 0.999982 1.776e-05
2
 1 2.3e-07
2
 0.99998 2e-05
2
 1 5e-07
1
 1

